words_hard_train/2031.qaiger
aag 185 24 0 1 161
2
4
8
10
14
16
22
24
30
32
38
40
46
48
54
56
68
70
74
78
82
86
90
94
371
6 2 4
12 8 10
18 14 16
20 13 19
26 22 24
28 20 27
34 30 32
36 28 35
42 38 40
44 36 43
50 46 48
52 44 51
58 54 56
60 52 59
62 7 60
64 6 61
66 63 65
72 69 71
76 72 75
80 76 79
84 80 83
88 84 87
92 88 90
96 92 95
98 67 97
100 66 96
102 99 101
104 12 68
106 68 90
108 106 71
110 107 70
112 109 111
114 12 18
116 115 21
118 112 117
120 113 116
122 119 121
124 104 122
126 125 121
128 73 90
130 129 75
132 128 74
134 131 133
136 21 26
138 137 29
140 135 139
142 134 138
144 141 143
146 127 144
148 147 143
150 77 90
152 151 78
154 150 79
156 153 155
158 29 34
160 159 37
162 156 161
164 157 160
166 163 165
168 149 166
170 169 165
172 81 90
174 173 83
176 172 82
178 175 177
180 37 42
182 181 45
184 179 183
186 178 182
188 185 187
190 171 188
192 191 187
194 85 90
196 195 86
198 194 87
200 197 199
202 45 50
204 203 53
206 200 205
208 201 204
210 207 209
212 193 210
214 213 209
216 89 90
218 217 94
220 216 95
222 219 221
224 53 58
226 225 61
228 222 227
230 223 226
232 229 231
234 215 232
236 235 231
238 102 237
240 103 236
242 239 241
244 243 4
246 13 69
248 247 105
250 105 123
252 251 125
254 249 253
256 126 145
258 257 147
260 254 259
262 148 167
264 263 169
266 261 264
268 260 265
270 267 269
272 258 25
274 273 261
276 68 11
278 276 13
280 278 17
282 281 253
284 277 16
286 283 285
288 259 24
290 286 289
292 274 291
294 292 32
296 271 295
298 293 33
300 297 299
302 300 40
304 301 41
306 170 189
308 307 191
310 269 308
312 268 309
314 311 313
316 305 314
318 303 317
320 192 211
322 321 213
324 313 322
326 312 323
328 325 327
330 329 49
332 319 331
334 328 48
336 333 335
338 214 233
340 339 235
342 327 340
344 326 341
346 343 345
348 347 57
350 337 349
352 350 344
354 244 353
356 343 56
358 357 345
360 358 351
362 355 361
364 242 5
366 362 365
368 353 364
370 367 369
i0 1 x1[7]
i1 1 x2[7]
i2 1 x1[0]
i3 1 x2[0]
i4 1 x1[1]
i5 1 x2[1]
i6 1 x1[2]
i7 1 x2[2]
i8 1 x1[3]
i9 1 x2[3]
i10 1 x1[4]
i11 1 x2[4]
i12 1 x1[5]
i13 1 x2[5]
i14 1 x1[6]
i15 1 x2[6]
i16 2 y2[0]
i17 2 y2[1]
i18 2 y2[2]
i19 2 y2[3]
i20 2 y2[4]
i21 2 y2[5]
i22 2 y2[7]
i23 2 y2[6]
o0 bv[0]
c
simplified
  >=
    1 x2
    subtract
      abs
        2 y2
      and
        1 x2
        1 x1
