words_hard_train/2031.qaiger.qdimacs
p cnf 185 484
a 1 2 4 5 7 8 11 12 15 16 19 20 23 24 27 28 0
e 3 6 9 10 13 14 17 18 21 22 25 26 29 30 31 32 33 34 35 36 37 38 39 40 41 42 43 44 45 46 47 48 49 50 51 52 53 54 55 56 57 58 59 60 61 62 63 64 65 66 67 68 69 70 71 72 73 74 75 76 77 78 79 80 81 82 83 84 85 86 87 88 89 90 91 92 93 94 95 96 97 98 99 100 101 102 103 104 105 106 107 108 109 110 111 112 113 114 115 116 117 118 119 120 121 122 123 124 125 126 127 128 129 130 131 132 133 134 135 136 137 138 139 140 141 142 143 144 145 146 147 148 149 150 151 152 153 154 155 156 157 158 159 160 161 162 163 164 165 166 167 168 169 170 171 172 173 174 175 176 177 178 179 180 181 182 183 184 185 0
-1 -2 3 0
1 -3 0
2 -3 0
-4 -5 6 0
4 -6 0
5 -6 0
-7 -8 9 0
7 -9 0
8 -9 0
6 9 10 0
-6 -10 0
-9 -10 0
-11 -12 13 0
11 -13 0
12 -13 0
-10 13 14 0
10 -14 0
-13 -14 0
-15 -16 17 0
15 -17 0
16 -17 0
-14 17 18 0
14 -18 0
-17 -18 0
-19 -20 21 0
19 -21 0
20 -21 0
-18 21 22 0
18 -22 0
-21 -22 0
-23 -24 25 0
23 -25 0
24 -25 0
-22 25 26 0
22 -26 0
-25 -26 0
-27 -28 29 0
27 -29 0
28 -29 0
-26 29 30 0
26 -30 0
-29 -30 0
3 -30 31 0
-3 -31 0
30 -31 0
-3 30 32 0
3 -32 0
-30 -32 0
31 32 33 0
-31 -33 0
-32 -33 0
34 35 36 0
-34 -36 0
-35 -36 0
-36 37 38 0
36 -38 0
-37 -38 0
-38 39 40 0
38 -40 0
-39 -40 0
-40 41 42 0
40 -42 0
-41 -42 0
-42 43 44 0
42 -44 0
-43 -44 0
-44 -45 46 0
44 -46 0
45 -46 0
-46 47 48 0
46 -48 0
-47 -48 0
33 48 49 0
-33 -49 0
-48 -49 0
-33 -48 50 0
33 -50 0
48 -50 0
49 50 51 0
-49 -51 0
-50 -51 0
-6 -34 52 0
6 -52 0
34 -52 0
-34 -45 53 0
34 -53 0
45 -53 0
-53 35 54 0
53 -54 0
-35 -54 0
53 -35 55 0
-53 -55 0
35 -55 0
54 55 56 0
-54 -56 0
-55 -56 0
-6 -9 57 0
6 -57 0
9 -57 0
57 10 58 0
-57 -58 0
-10 -58 0
-56 58 59 0
56 -59 0
-58 -59 0
56 -58 60 0
-56 -60 0
58 -60 0
59 60 61 0
-59 -61 0
-60 -61 0
-52 -61 62 0
52 -62 0
61 -62 0
62 60 63 0
-62 -63 0
-60 -63 0
36 -45 64 0
-36 -64 0
45 -64 0
64 37 65 0
-64 -65 0
-37 -65 0
-64 -37 66 0
64 -66 0
37 -66 0
65 66 67 0
-65 -67 0
-66 -67 0
10 -13 68 0
-10 -68 0
13 -68 0
68 14 69 0
-68 -69 0
-14 -69 0
67 69 70 0
-67 -70 0
-69 -70 0
-67 -69 71 0
67 -71 0
69 -71 0
70 71 72 0
-70 -72 0
-71 -72 0
63 -72 73 0
-63 -73 0
72 -73 0
73 71 74 0
-73 -74 0
-71 -74 0
38 -45 75 0
-38 -75 0
45 -75 0
75 -39 76 0
-75 -76 0
39 -76 0
-75 39 77 0
75 -77 0
-39 -77 0
76 77 78 0
-76 -78 0
-77 -78 0
14 -17 79 0
-14 -79 0
17 -79 0
79 18 80 0
-79 -80 0
-18 -80 0
-78 80 81 0
78 -81 0
-80 -81 0
78 -80 82 0
-78 -82 0
80 -82 0
81 82 83 0
-81 -83 0
-82 -83 0
74 -83 84 0
-74 -84 0
83 -84 0
84 82 85 0
-84 -85 0
-82 -85 0
40 -45 86 0
-40 -86 0
45 -86 0
86 41 87 0
-86 -87 0
-41 -87 0
-86 -41 88 0
86 -88 0
41 -88 0
87 88 89 0
-87 -89 0
-88 -89 0
18 -21 90 0
-18 -90 0
21 -90 0
90 22 91 0
-90 -91 0
-22 -91 0
89 91 92 0
-89 -92 0
-91 -92 0
-89 -91 93 0
89 -93 0
91 -93 0
92 93 94 0
-92 -94 0
-93 -94 0
85 -94 95 0
-85 -95 0
94 -95 0
95 93 96 0
-95 -96 0
-93 -96 0
42 -45 97 0
-42 -97 0
45 -97 0
97 -43 98 0
-97 -98 0
43 -98 0
-97 43 99 0
97 -99 0
-43 -99 0
98 99 100 0
-98 -100 0
-99 -100 0
22 -25 101 0
-22 -101 0
25 -101 0
101 26 102 0
-101 -102 0
-26 -102 0
-100 102 103 0
100 -103 0
-102 -103 0
100 -102 104 0
-100 -104 0
102 -104 0
103 104 105 0
-103 -105 0
-104 -105 0
96 -105 106 0
-96 -106 0
105 -106 0
106 104 107 0
-106 -107 0
-104 -107 0
44 -45 108 0
-44 -108 0
45 -108 0
108 -47 109 0
-108 -109 0
47 -109 0
-108 47 110 0
108 -110 0
-47 -110 0
109 110 111 0
-109 -111 0
-110 -111 0
26 -29 112 0
-26 -112 0
29 -112 0
112 30 113 0
-112 -113 0
-30 -113 0
-111 113 114 0
111 -114 0
-113 -114 0
111 -113 115 0
-111 -115 0
113 -115 0
114 115 116 0
-114 -116 0
-115 -116 0
107 -116 117 0
-107 -117 0
116 -117 0
117 115 118 0
-117 -118 0
-115 -118 0
-51 118 119 0
51 -119 0
-118 -119 0
51 -118 120 0
-51 -120 0
118 -120 0
119 120 121 0
-119 -121 0
-120 -121 0
121 -2 122 0
-121 -122 0
2 -122 0
6 34 123 0
-6 -123 0
-34 -123 0
123 52 124 0
-123 -124 0
-52 -124 0
52 61 125 0
-52 -125 0
-61 -125 0
125 62 126 0
-125 -126 0
-62 -126 0
124 126 127 0
-124 -127 0
-126 -127 0
-63 72 128 0
63 -128 0
-72 -128 0
128 73 129 0
-128 -129 0
-73 -129 0
-127 129 130 0
127 -130 0
-129 -130 0
-74 83 131 0
74 -131 0
-83 -131 0
131 84 132 0
-131 -132 0
-84 -132 0
130 -132 133 0
-130 -133 0
132 -133 0
-130 132 134 0
130 -134 0
-132 -134 0
133 134 135 0
-133 -135 0
-134 -135 0
-129 12 136 0
129 -136 0
-12 -136 0
136 130 137 0
-136 -137 0
-130 -137 0
-34 5 138 0
34 -138 0
-5 -138 0
-138 6 139 0
138 -139 0
-6 -139 0
-139 8 140 0
139 -140 0
-8 -140 0
140 126 141 0
-140 -141 0
-126 -141 0
138 -8 142 0
-138 -142 0
8 -142 0
141 142 143 0
-141 -143 0
-142 -143 0
129 -12 144 0
-129 -144 0
12 -144 0
-143 144 145 0
143 -145 0
-144 -145 0
-137 145 146 0
137 -146 0
-145 -146 0
-146 -16 147 0
146 -147 0
16 -147 0
135 147 148 0
-135 -148 0
-147 -148 0
146 16 149 0
-146 -149 0
-16 -149 0
148 149 150 0
-148 -150 0
-149 -150 0
-150 -20 151 0
150 -151 0
20 -151 0
150 20 152 0
-150 -152 0
-20 -152 0
-85 94 153 0
85 -153 0
-94 -153 0
153 95 154 0
-153 -154 0
-95 -154 0
134 -154 155 0
-134 -155 0
154 -155 0
-134 154 156 0
134 -156 0
-154 -156 0
155 156 157 0
-155 -157 0
-156 -157 0
152 -157 158 0
-152 -158 0
157 -158 0
151 158 159 0
-151 -159 0
-158 -159 0
-96 105 160 0
96 -160 0
-105 -160 0
160 106 161 0
-160 -161 0
-106 -161 0
156 -161 162 0
-156 -162 0
161 -162 0
-156 161 163 0
156 -163 0
-161 -163 0
162 163 164 0
-162 -164 0
-163 -164 0
164 24 165 0
-164 -165 0
-24 -165 0
159 165 166 0
-159 -166 0
-165 -166 0
-164 -24 167 0
164 -167 0
24 -167 0
166 167 168 0
-166 -168 0
-167 -168 0
-107 116 169 0
107 -169 0
-116 -169 0
169 117 170 0
-169 -170 0
-117 -170 0
163 -170 171 0
-163 -171 0
170 -171 0
-163 170 172 0
163 -172 0
-170 -172 0
171 172 173 0
-171 -173 0
-172 -173 0
173 28 174 0
-173 -174 0
-28 -174 0
168 174 175 0
-168 -175 0
-174 -175 0
-175 -172 176 0
175 -176 0
172 -176 0
-122 176 177 0
122 -177 0
-176 -177 0
171 -28 178 0
-171 -178 0
28 -178 0
178 172 179 0
-178 -179 0
-172 -179 0
-179 175 180 0
179 -180 0
-175 -180 0
177 180 181 0
-177 -181 0
-180 -181 0
-121 2 182 0
121 -182 0
-2 -182 0
-181 182 183 0
181 -183 0
-182 -183 0
176 -182 184 0
-176 -184 0
182 -184 0
183 184 185 0
-183 -185 0
-184 -185 0
-185 0
